c 4_3_checker_5cl.cnf
c
c field = 4
c formula set type = 3_checker_5cl
c
p cnf 5 8
0 
2 
4 
-9 
-10 
1 
3 
5 
-8 
-11 
2 
4 
8 
-1 
-10 
3 
5 
9 
-0 
-11 
36 
66 
96 
-127 
-156 
37 
67 
97 
-126 
-157 
38 
70 
102 
-135 
-166 
39 
71 
103 
-134 
-167 
